&CONTROL
  calculation = 'vc-relax',
  pseudo_dir = './',
  outdir='./'
  prefix = 'test',
etot_conv_thr=1.D-7,
forc_conv_thr=2.D-6,
nstep =200,
/
&SYSTEM
  ibrav = 4,
  celldm(1) = 12.0809,
  celldm(3) = 2.0867,
  nat = 20,
  ntyp = 4,
  ecutwfc = 40,
  ecutrho = 320,
  occupations = 'smearing',
  smearing = 'gaussian',
  degauss = 0.02,
  input_dft = 'pbe',
  vdw_corr = 'grimme-d2',
  london_s6 = 0.5,
/
&ELECTRONS
  electron_maxstep = 100,
  diagonalization = 'david',
  conv_thr = 1.0d-6,
  mixing_beta = 0.12,
/
&IONS
/
&CELL
  press = 0.0,
/
ATOMIC_SPECIES
P   30.974    p_pbe_v1.5.uspp.F.UPF
Cu  63.546    cu_pbe_v1.2.uspp.F.UPF
In  114.818   in_pbe_v1.4.uspp.F.UPF
Se  78.971    se_pbe_v1.uspp.F.UPF

ATOMIC_POSITIONS (crystal)
Cu 0.664997595 0.309417833 0.283177299
Cu 0.331804682 0.682497039 0.774721300
In 0.008966670 0.006692805 0.263037575
In 0.012205607 0.010466461 0.740084539
P 0.333291655 0.668216034 0.165405386
P 0.330885952 0.669008951 0.335304302
P 0.667417425 0.334740574 -0.167980496
P 0.664224758 0.334476332 0.665525221
Se 0.005237299 0.336792044 0.122872092
Se -0.336563977 -0.335477389 0.122323493
Se 0.334080025 -0.008776309 0.117520928
Se -0.341682538 -0.009467425 0.384214141
Se 0.326392508 0.340965706 0.374931699
Se 0.007173792 -0.328607877 0.377503957
Se -0.011813234 -0.339372787 -0.121755790
Se 0.345094218 0.335364611 -0.121774172
Se -0.327507545 0.010346500 -0.115561293
Se 0.341530640 0.007104140 0.622502499
Se -0.329639176 -0.344431050 0.618256801
Se -0.006610015 0.325987005 0.621313656

 
K_POINTS {automatic}
6 6 6 1 1 1