&CONTROL
  calculation = 'vc-relax',
  pseudo_dir = './',
  outdir='./'
  prefix = 'test',
etot_conv_thr=1.D-7,
forc_conv_thr=2.D-6,
nstep =200,
/
&SYSTEM
  ibrav = 4,
  celldm(1) = 12.0809,
  celldm(3) = 2.0867,
  nat = 20,
  ntyp = 4,
  ecutwfc = 40,
  ecutrho = 320,
  occupations = 'smearing',
  smearing = 'gaussian',
  degauss = 0.02,
  input_dft = 'pbe',
  vdw_corr = 'grimme-d2',
  london_s6 = 0.5,
/
&ELECTRONS
  electron_maxstep = 100,
  diagonalization = 'david',
  conv_thr = 1.0d-6,
  mixing_beta = 0.12,
/
&IONS
/
&CELL
  press = 0.0,
/
ATOMIC_SPECIES
P   30.974    p_pbe_v1.5.uspp.F.UPF
Cu  63.546    cu_pbe_v1.2.uspp.F.UPF
In  114.818   in_pbe_v1.4.uspp.F.UPF
Se  78.971    se_pbe_v1.uspp.F.UPF

ATOMIC_POSITIONS (crystal)
Cu 0.696747415 0.297864529 0.292874806
Cu 0.314264248 0.665183500 0.728406582
In 0.010794972 -0.000754611 0.258086685
In -0.003648641 -0.012698356 0.756340223
P 0.334478528 0.666378089 0.163186517
P 0.333055588 0.668413453 0.333724921
P 0.664597069 0.334490101 -0.165968949
P 0.666768620 0.335428467 0.665648983
Se 0.010713293 0.340907793 0.116992201
Se -0.344219154 -0.329420901 0.122403235
Se 0.326735650 -0.007877950 0.118973922
Se -0.338615353 -0.004677508 0.381634085
Se 0.333651110 0.340348885 0.377276349
Se 0.007581207 -0.329538711 0.383231939
Se -0.004895974 -0.336091402 -0.122617470
Se 0.344003568 0.335473337 -0.122678672
Se -0.331020560 0.006770505 -0.115393176
Se 0.343277457 0.014109448 0.620295272
Se -0.326798914 -0.340265222 0.624464061
Se -0.014071187 0.330270029 0.623713590

 
K_POINTS {automatic}
6 6 6 1 1 1