&CONTROL
  calculation = 'vc-relax',
  pseudo_dir = './',
  outdir='./'
  prefix = 'test',
etot_conv_thr=1.D-7,
forc_conv_thr=2.D-6,
nstep =200,
/
&SYSTEM
  ibrav = 4,
  celldm(1) = 12.0809,
  celldm(3) = 2.0867,
  nat = 20,
  ntyp = 4,
  ecutwfc = 40,
  ecutrho = 320,
  occupations = 'smearing',
  smearing = 'gaussian',
  degauss = 0.02,
  input_dft = 'pbe',
  vdw_corr = 'grimme-d2',
  london_s6 = 0.5,
/
&ELECTRONS
  electron_maxstep = 100,
  diagonalization = 'david',
  conv_thr = 1.0d-6,
  mixing_beta = 0.12,
/
&IONS
/
&CELL
  press = 0.0,
/
ATOMIC_SPECIES
P   30.974    p_pbe_v1.5.uspp.F.UPF
Cu  63.546    cu_pbe_v1.2.uspp.F.UPF
In  114.818   in_pbe_v1.4.uspp.F.UPF
Se  78.971    se_pbe_v1.uspp.F.UPF

ATOMIC_POSITIONS (crystal)
Cu 0.622376232 0.349804562 0.265679314
Cu 0.373089561 0.616919552 0.733544686
In -0.008287512 0.007919959 0.261918536
In 0.000918937 -0.001666530 0.762958752
P 0.334929999 0.664623212 0.166465676
P 0.330958730 0.667401594 0.332803091
P 0.667465287 0.333324336 -0.163530852
P 0.665588972 0.332516511 0.665013700
Se 0.012311451 0.339553693 0.115728169
Se -0.337118703 -0.333979310 0.122295727
Se 0.333620255 -0.009589488 0.119749351
Se -0.341740738 -0.007973556 0.382928733
Se 0.328159471 0.336867566 0.380647065
Se 0.007350861 -0.335526634 0.377281813
Se -0.004756076 -0.337134984 -0.117478961
Se 0.337518240 0.334399987 -0.117658128
Se -0.335222639 0.010560037 -0.124887419
Se 0.345016349 0.005645709 0.618291745
Se -0.334088816 -0.344336971 0.620998372
Se -0.014175379 0.327415867 0.624311083

 
K_POINTS {automatic}
6 6 6 1 1 1