&CONTROL
  calculation = 'vc-relax',
  pseudo_dir = './',
  outdir='./'
  prefix = 'test',
etot_conv_thr=1.D-7,
forc_conv_thr=2.D-6,
nstep =200,
/
&SYSTEM
  ibrav = 4,
  celldm(1) = 12.0809,
  celldm(3) = 2.0867,
  nat = 20,
  ntyp = 4,
  ecutwfc = 40,
  ecutrho = 320,
  occupations = 'smearing',
  smearing = 'gaussian',
  degauss = 0.02,
  input_dft = 'pbe',
  vdw_corr = 'grimme-d2',
  london_s6 = 0.5,
/
&ELECTRONS
  electron_maxstep = 100,
  diagonalization = 'david',
  conv_thr = 1.0d-6,
  mixing_beta = 0.12,
/
&IONS
/
&CELL
  press = 0.0,
/
ATOMIC_SPECIES
P   30.974    p_pbe_v1.5.uspp.F.UPF
Cu  63.546    cu_pbe_v1.2.uspp.F.UPF
In  114.818   in_pbe_v1.4.uspp.F.UPF
Se  78.971    se_pbe_v1.uspp.F.UPF

ATOMIC_POSITIONS (crystal)
Cu 0.654368258 0.359177151 0.225374407
Cu 0.338256018 0.701488790 0.770705771
In -0.013183689 -0.004741849 0.240532923
In 0.011283343 0.014228748 0.759753616
P 0.334040765 0.666573605 0.165441368
P 0.331882618 0.665362731 0.335701426
P 0.666707987 0.335169385 -0.166647307
P 0.666498989 0.335623384 0.666081484
Se 0.007043005 0.340233201 0.120361825
Se -0.335491010 -0.331468194 0.120023487
Se 0.329174001 -0.005594172 0.124432978
Se -0.344179948 -0.006111000 0.378990477
Se 0.330289805 0.344438940 0.381554116
Se 0.010164032 -0.330286229 0.377803518
Se -0.013452453 -0.336657578 -0.118935307
Se 0.344313297 0.329222498 -0.117464750
Se -0.329648812 0.007836369 -0.117045512
Se 0.337473480 0.005558578 0.618184697
Se -0.329110906 -0.340734595 0.622551135
Se -0.013959211 0.326339363 0.621744803

 
K_POINTS {automatic}
6 6 6 1 1 1