&CONTROL
  calculation = 'vc-relax',
  pseudo_dir = './',
  outdir='./'
  prefix = 'test',
etot_conv_thr=1.D-7,
forc_conv_thr=2.D-6,
nstep =200,
/
&SYSTEM
  ibrav = 4,
  celldm(1) = 12.0809,
  celldm(3) = 2.0867,
  nat = 20,
  ntyp = 4,
  ecutwfc = 40,
  ecutrho = 320,
  occupations = 'smearing',
  smearing = 'gaussian',
  degauss = 0.02,
  input_dft = 'pbe',
  vdw_corr = 'grimme-d2',
  london_s6 = 0.5,
/
&ELECTRONS
  electron_maxstep = 100,
  diagonalization = 'david',
  conv_thr = 1.0d-6,
  mixing_beta = 0.12,
/
&IONS
/
&CELL
  press = 0.0,
/
ATOMIC_SPECIES
P   30.974    p_pbe_v1.5.uspp.F.UPF
Cu  63.546    cu_pbe_v1.2.uspp.F.UPF
In  114.818   in_pbe_v1.4.uspp.F.UPF
Se  78.971    se_pbe_v1.uspp.F.UPF

ATOMIC_POSITIONS (crystal)
Cu 0.697188258 0.283768224 0.244728754
Cu 0.310323325 0.688201143 0.782583327
In -0.007819512 -0.005168343 0.248980493
In -0.006181923 -0.004748032 0.750352052
P 0.332624335 0.664722406 0.163273717
P 0.331453622 0.664548158 0.332805742
P 0.666887475 0.333380199 -0.166138775
P 0.664979709 0.335192597 0.665688085
Se 0.012738686 0.344258425 0.122093387
Se -0.343712922 -0.333785276 0.116445380
Se 0.328084554 -0.005337626 0.116161216
Se -0.339323299 -0.007336970 0.377580906
Se 0.331676059 0.343197585 0.383674340
Se 0.004994490 -0.330603494 0.378865030
Se -0.014138407 -0.336069429 -0.121935205
Se 0.337751239 0.328570812 -0.115172126
Se -0.335531358 0.007062379 -0.121789728
Se 0.341785015 0.008951140 0.621179115
Se -0.325954984 -0.335175485 0.623565425
Se -0.011236458 0.330703241 0.624818109

 
K_POINTS {automatic}
6 6 6 1 1 1