&CONTROL
  calculation = 'vc-relax',
  pseudo_dir = './',
  outdir='./'
  prefix = 'test',
etot_conv_thr=1.D-7,
forc_conv_thr=2.D-6,
nstep =200,
/
&SYSTEM
  ibrav = 4,
  celldm(1) = 12.0809,
  celldm(3) = 2.0867,
  nat = 20,
  ntyp = 4,
  ecutwfc = 40,
  ecutrho = 320,
  occupations = 'smearing',
  smearing = 'gaussian',
  degauss = 0.02,
  input_dft = 'pbe',
  vdw_corr = 'grimme-d2',
  london_s6 = 0.5,
/
&ELECTRONS
  electron_maxstep = 100,
  diagonalization = 'david',
  conv_thr = 1.0d-6,
  mixing_beta = 0.12,
/
&IONS
/
&CELL
  press = 0.0,
/
ATOMIC_SPECIES
P   30.974    p_pbe_v1.5.uspp.F.UPF
Cu  63.546    cu_pbe_v1.2.uspp.F.UPF
In  114.818   in_pbe_v1.4.uspp.F.UPF
Se  78.971    se_pbe_v1.uspp.F.UPF

ATOMIC_POSITIONS (crystal)
Cu 0.623794749 0.320048733 0.244605968
Cu 0.342650304 0.652433212 0.745007493
In 0.000972731 -0.011052398 0.245706438
In 0.007445929 0.006551968 0.746784588
P 0.334917570 0.664561512 0.163451063
P 0.333477944 0.664220894 0.335297084
P 0.668260841 0.333789970 -0.163227551
P 0.667011593 0.331317697 0.664133042
Se 0.008900819 0.337758002 0.119097086
Se -0.341041812 -0.334783707 0.123965658
Se 0.330052363 -0.010180664 0.121816469
Se -0.337505228 -0.011841582 0.376194488
Se 0.333426339 0.336818825 0.383706838
Se 0.011769442 -0.333516757 0.375403866
Se -0.014016899 -0.337331806 -0.118246541
Se 0.344992280 0.326060801 -0.120182294
Se -0.332887519 0.008068531 -0.116409010
Se 0.341328121 0.006040054 0.616213497
Se -0.328549536 -0.335664102 0.620571379
Se -0.006148517 0.325907984 0.617104920

 
K_POINTS {automatic}
6 6 6 1 1 1