&CONTROL
  calculation = 'vc-relax',
  pseudo_dir = './',
  outdir='./'
  prefix = 'test',
etot_conv_thr=1.D-7,
forc_conv_thr=2.D-6,
nstep =200,
/
&SYSTEM
  ibrav = 4,
  celldm(1) = 12.0809,
  celldm(3) = 2.0867,
  nat = 20,
  ntyp = 4,
  ecutwfc = 40,
  ecutrho = 320,
  occupations = 'smearing',
  smearing = 'gaussian',
  degauss = 0.02,
  input_dft = 'pbe',
  vdw_corr = 'grimme-d2',
  london_s6 = 0.5,
/
&ELECTRONS
  electron_maxstep = 100,
  diagonalization = 'david',
  conv_thr = 1.0d-6,
  mixing_beta = 0.12,
/
&IONS
/
&CELL
  press = 0.0,
/
ATOMIC_SPECIES
P   30.974    p_pbe_v1.5.uspp.F.UPF
Cu  63.546    cu_pbe_v1.2.uspp.F.UPF
In  114.818   in_pbe_v1.4.uspp.F.UPF
Se  78.971    se_pbe_v1.uspp.F.UPF

ATOMIC_POSITIONS (crystal)
Cu 0.700627453 0.357590700 0.233242962
Cu 0.311872309 0.712628971 0.750449790
In 0.013891639 -0.006772532 0.259697525
In -0.009657920 -0.014043088 0.739225255
P 0.331874655 0.669070154 0.163397698
P 0.332424006 0.664453042 0.333421064
P 0.665534014 0.334813894 -0.164769278
P 0.666735977 0.335061448 0.666649942
Se 0.006619571 0.336054683 0.124331039
Se -0.342352131 -0.331592894 0.119060827
Se 0.332428999 -0.005354773 0.115652619
Se -0.338769781 -0.006299921 0.384269553
Se 0.334930389 0.338582362 0.376703275
Se 0.013772359 -0.330071656 0.382208519
Se -0.004886711 -0.339607063 -0.117200371
Se 0.339014216 0.327182211 -0.124169209
Se -0.331154212 0.013586889 -0.122204437
Se 0.335828281 0.014270935 0.621644414
Se -0.328049946 -0.342236170 0.615842446
Se -0.007938797 0.326627551 0.623528557

 
K_POINTS {automatic}
6 6 6 1 1 1