&CONTROL
  calculation = 'vc-relax',
  pseudo_dir = './',
  outdir='./'
  prefix = 'test',
etot_conv_thr=1.D-7,
forc_conv_thr=2.D-6,
nstep =200,
/
&SYSTEM
  ibrav = 4,
  celldm(1) = 12.0809,
  celldm(3) = 2.0867,
  nat = 20,
  ntyp = 4,
  ecutwfc = 40,
  ecutrho = 320,
  occupations = 'smearing',
  smearing = 'gaussian',
  degauss = 0.02,
  input_dft = 'pbe',
  vdw_corr = 'grimme-d2',
  london_s6 = 0.5,
/
&ELECTRONS
  electron_maxstep = 100,
  diagonalization = 'david',
  conv_thr = 1.0d-6,
  mixing_beta = 0.12,
/
&IONS
/
&CELL
  press = 0.0,
/
ATOMIC_SPECIES
P   30.974    p_pbe_v1.5.uspp.F.UPF
Cu  63.546    cu_pbe_v1.2.uspp.F.UPF
In  114.818   in_pbe_v1.4.uspp.F.UPF
Se  78.971    se_pbe_v1.uspp.F.UPF

ATOMIC_POSITIONS (crystal)
Cu 0.643691310 0.353135529 0.275313563
Cu 0.362005517 0.684501109 0.769486770
In 0.007995800 0.004901184 0.254979345
In -0.014421254 -0.011361725 0.743794059
P 0.330865342 0.665364324 0.163888010
P 0.335329557 0.665320548 0.336094271
P 0.668684942 0.332358576 -0.165073243
P 0.668037394 0.333423761 0.663636019
Se 0.009315794 0.344924637 0.120932806
Se -0.341210068 -0.330412596 0.121488701
Se 0.327136133 -0.007769363 0.115684330
Se -0.340562521 -0.011270147 0.374968920
Se 0.327150909 0.341103433 0.376724550
Se 0.006677960 -0.334986701 0.383144878
Se -0.012963248 -0.343244421 -0.123360709
Se 0.344233120 0.331729849 -0.123923111
Se -0.331883435 0.005418324 -0.117794728
Se 0.338316731 0.009132319 0.616997069
Se -0.334028960 -0.341712365 0.618086048
Se -0.012635658 0.328542577 0.622000325

 
K_POINTS {automatic}
6 6 6 1 1 1