&CONTROL
  calculation = 'vc-relax',
  pseudo_dir = './',
  outdir='./'
  prefix = 'test',
etot_conv_thr=1.D-7,
forc_conv_thr=2.D-6,
nstep =200,
/
&SYSTEM
  ibrav = 4,
  celldm(1) = 12.0809,
  celldm(3) = 2.0867,
  nat = 20,
  ntyp = 4,
  ecutwfc = 40,
  ecutrho = 320,
  occupations = 'smearing',
  smearing = 'gaussian',
  degauss = 0.02,
  input_dft = 'pbe',
  vdw_corr = 'grimme-d2',
  london_s6 = 0.5,
/
&ELECTRONS
  electron_maxstep = 100,
  diagonalization = 'david',
  conv_thr = 1.0d-6,
  mixing_beta = 0.12,
/
&IONS
/
&CELL
  press = 0.0,
/
ATOMIC_SPECIES
P   30.974    p_pbe_v1.5.uspp.F.UPF
Cu  63.546    cu_pbe_v1.2.uspp.F.UPF
In  114.818   in_pbe_v1.4.uspp.F.UPF
Se  78.971    se_pbe_v1.uspp.F.UPF

ATOMIC_POSITIONS (crystal)
Cu 0.704346722 0.359590690 0.257162803
Cu 0.348857093 0.682253989 0.753927885
In -0.001360756 -0.008188906 0.243503133
In 0.000177234 -0.008500659 0.763350016
P 0.335443772 0.666431335 0.163709530
P 0.333565302 0.668374140 0.335311225
P 0.665824795 0.333778530 -0.164394095
P 0.666625590 0.332823517 0.667713573
Se 0.007198438 0.337168738 0.116727167
Se -0.336843504 -0.326333271 0.122049310
Se 0.333317962 -0.007723099 0.118454697
Se -0.339956884 -0.010959639 0.377839365
Se 0.334631605 0.336513232 0.376443778
Se 0.004920197 -0.326475627 0.379435761
Se -0.008544447 -0.343165563 -0.121919544
Se 0.336008291 0.335381323 -0.123768638
Se -0.329218601 0.013382383 -0.120747882
Se 0.336232918 0.014023745 0.621301480
Se -0.326828917 -0.338821948 0.617445774
Se -0.009631636 0.326148292 0.623955662

 
K_POINTS {automatic}
6 6 6 1 1 1