&CONTROL
  calculation = 'vc-relax',
  pseudo_dir = './',
  outdir='./'
  prefix = 'test',
etot_conv_thr=1.D-7,
forc_conv_thr=2.D-6,
nstep =200,
/
&SYSTEM
  ibrav = 4,
  celldm(1) = 12.0809,
  celldm(3) = 2.0867,
  nat = 20,
  ntyp = 4,
  ecutwfc = 40,
  ecutrho = 320,
  occupations = 'smearing',
  smearing = 'gaussian',
  degauss = 0.02,
  input_dft = 'pbe',
  vdw_corr = 'grimme-d2',
  london_s6 = 0.5,
/
&ELECTRONS
  electron_maxstep = 100,
  diagonalization = 'david',
  conv_thr = 1.0d-6,
  mixing_beta = 0.12,
/
&IONS
/
&CELL
  press = 0.0,
/
ATOMIC_SPECIES
P   30.974    p_pbe_v1.5.uspp.F.UPF
Cu  63.546    cu_pbe_v1.2.uspp.F.UPF
In  114.818   in_pbe_v1.4.uspp.F.UPF
Se  78.971    se_pbe_v1.uspp.F.UPF

ATOMIC_POSITIONS (crystal)
Cu 0.709838522 0.357726221 0.254715868
Cu 0.319650061 0.645321550 0.769502261
In -0.011055194 -0.003947134 0.251550674
In 0.008818872 0.000426614 0.758271127
P 0.334109048 0.666480755 0.163185654
P 0.331562842 0.667689353 0.332676251
P 0.667919770 0.333358023 -0.167887384
P 0.666595373 0.333833429 0.664918485
Se 0.012757670 0.336321485 0.119812687
Se -0.336977183 -0.329355058 0.120646141
Se 0.327108361 -0.011758569 0.119988658
Se -0.344425752 -0.006299835 0.376723750
Se 0.333763186 0.341879683 0.382883215
Se 0.007260751 -0.332590557 0.380632801
Se -0.007769660 -0.341860879 -0.121679768
Se 0.340910901 0.332598999 -0.117673658
Se -0.332928323 0.009434368 -0.117671561
Se 0.340240246 0.012954238 0.620366138
Se -0.330165718 -0.344119756 0.616431627
Se -0.005010989 0.329646367 0.621067147

 
K_POINTS {automatic}
6 6 6 1 1 1