&CONTROL
  calculation = 'vc-relax',
  pseudo_dir = './',
  outdir='./'
  prefix = 'test',
etot_conv_thr=1.D-7,
forc_conv_thr=2.D-6,
nstep =200,
/
&SYSTEM
  ibrav = 4,
  celldm(1) = 12.0809,
  celldm(3) = 2.0867,
  nat = 20,
  ntyp = 4,
  ecutwfc = 40,
  ecutrho = 320,
  occupations = 'smearing',
  smearing = 'gaussian',
  degauss = 0.02,
  input_dft = 'pbe',
  vdw_corr = 'grimme-d2',
  london_s6 = 0.5,
/
&ELECTRONS
  electron_maxstep = 100,
  diagonalization = 'david',
  conv_thr = 1.0d-6,
  mixing_beta = 0.12,
/
&IONS
/
&CELL
  press = 0.0,
/
ATOMIC_SPECIES
P   30.974    p_pbe_v1.5.uspp.F.UPF
Cu  63.546    cu_pbe_v1.2.uspp.F.UPF
In  114.818   in_pbe_v1.4.uspp.F.UPF
Se  78.971    se_pbe_v1.uspp.F.UPF

ATOMIC_POSITIONS (crystal)
Cu 0.671020578 0.381538166 0.281162825
Cu 0.320175856 0.649011132 0.749923519
In 0.003732387 -0.012253813 0.250806508
In 0.001332593 -0.000598732 0.746706886
P 0.335572152 0.666256446 0.167545118
P 0.332154301 0.665716380 0.336633759
P 0.668957370 0.334598582 -0.167874727
P 0.665582833 0.330800409 0.664257875
Se 0.013151719 0.339027761 0.119126264
Se -0.338479580 -0.329238010 0.116629600
Se 0.327479088 -0.013807113 0.121242352
Se -0.337477885 -0.009756637 0.380320676
Se 0.331554334 0.342245078 0.379263604
Se 0.009252838 -0.329857347 0.377045361
Se -0.005856736 -0.340480227 -0.117017284
Se 0.339870378 0.331092179 -0.124128174
Se -0.334123491 0.007980224 -0.116900297
Se 0.344661983 0.007406770 0.618029439
Se -0.327252180 -0.341159155 0.622923747
Se -0.008912099 0.335441133 0.621180476

 
K_POINTS {automatic}
6 6 6 1 1 1