&CONTROL
  calculation = 'vc-relax',
  pseudo_dir = './',
  outdir='./'
  prefix = 'test',
etot_conv_thr=1.D-7,
forc_conv_thr=2.D-6,
nstep =200,
/
&SYSTEM
  ibrav = 4,
  celldm(1) = 12.0809,
  celldm(3) = 2.0867,
  nat = 20,
  ntyp = 4,
  ecutwfc = 40,
  ecutrho = 320,
  occupations = 'smearing',
  smearing = 'gaussian',
  degauss = 0.02,
  input_dft = 'pbe',
  vdw_corr = 'grimme-d2',
  london_s6 = 0.5,
/
&ELECTRONS
  electron_maxstep = 100,
  diagonalization = 'david',
  conv_thr = 1.0d-6,
  mixing_beta = 0.12,
/
&IONS
/
&CELL
  press = 0.0,
/
ATOMIC_SPECIES
P   30.974    p_pbe_v1.5.uspp.F.UPF
Cu  63.546    cu_pbe_v1.2.uspp.F.UPF
In  114.818   in_pbe_v1.4.uspp.F.UPF
Se  78.971    se_pbe_v1.uspp.F.UPF

ATOMIC_POSITIONS (crystal)
Cu 0.685480205 0.366828198 0.261378731
Cu 0.368098650 0.660019166 0.799631984
In 0.001518601 -0.007078396 0.241347259
In -0.011766764 -0.011567222 0.750476824
P 0.331640434 0.664763284 0.164613309
P 0.333045840 0.666977462 0.333023796
P 0.665922016 0.333332712 -0.166088661
P 0.665475760 0.335717677 0.665659082
Se 0.004982004 0.337327639 0.122594313
Se -0.339604568 -0.330684716 0.122096055
Se 0.326545556 -0.007650511 0.119769479
Se -0.337913138 -0.004600010 0.378411921
Se 0.333904094 0.343781182 0.378400436
Se 0.010403850 -0.334022361 0.381067291
Se -0.007180495 -0.341786195 -0.121536414
Se 0.344289939 0.330405689 -0.120454390
Se -0.325879569 0.006481848 -0.120334016
Se 0.338236891 0.008144409 0.616408085
Se -0.329344077 -0.338578417 0.621557756
Se -0.010684849 0.335073922 0.621340476

 
K_POINTS {automatic}
6 6 6 1 1 1