&CONTROL
  calculation = 'vc-relax',
  pseudo_dir = './',
  outdir='./'
  prefix = 'test',
etot_conv_thr=1.D-7,
forc_conv_thr=2.D-6,
nstep =200,
/
&SYSTEM
  ibrav = 4,
  celldm(1) = 12.0809,
  celldm(3) = 2.0867,
  nat = 20,
  ntyp = 4,
  ecutwfc = 40,
  ecutrho = 320,
  occupations = 'smearing',
  smearing = 'gaussian',
  degauss = 0.02,
  input_dft = 'pbe',
  vdw_corr = 'grimme-d2',
  london_s6 = 0.5,
/
&ELECTRONS
  electron_maxstep = 100,
  diagonalization = 'david',
  conv_thr = 1.0d-6,
  mixing_beta = 0.12,
/
&IONS
/
&CELL
  press = 0.0,
/
ATOMIC_SPECIES
P   30.974    p_pbe_v1.5.uspp.F.UPF
Cu  63.546    cu_pbe_v1.2.uspp.F.UPF
In  114.818   in_pbe_v1.4.uspp.F.UPF
Se  78.971    se_pbe_v1.uspp.F.UPF

ATOMIC_POSITIONS (crystal)
Cu 0.624124559 0.356248949 0.267598473
Cu 0.315063055 0.667423925 0.732370714
In 0.013514220 -0.012945124 0.262975375
In 0.001916376 -0.001969319 0.745436920
P 0.333372473 0.666345052 0.164715513
P 0.330808987 0.664211651 0.333881343
P 0.664210224 0.332312573 -0.164424329
P 0.668899523 0.333220948 0.667203369
Se 0.009062958 0.343951258 0.121618088
Se -0.344044439 -0.326525101 0.122537369
Se 0.332979493 -0.010316542 0.122212706
Se -0.337008380 -0.012783093 0.383124402
Se 0.333963832 0.335781102 0.382013241
Se 0.013753064 -0.327770923 0.384753292
Se -0.009639526 -0.343882274 -0.123897840
Se 0.340285897 0.327256209 -0.123736333
Se -0.327543452 0.004573062 -0.118430107
Se 0.341499431 0.012071638 0.620665125
Se -0.327571486 -0.341662813 0.622246062
Se -0.013313481 0.335236994 0.616308267

 
K_POINTS {automatic}
6 6 6 1 1 1