&CONTROL
  calculation = 'vc-relax',
  pseudo_dir = './',
  outdir='./'
  prefix = 'test',
etot_conv_thr=1.D-7,
forc_conv_thr=2.D-6,
nstep =200,
/
&SYSTEM
  ibrav = 4,
  celldm(1) = 12.0809,
  celldm(3) = 2.0867,
  nat = 20,
  ntyp = 4,
  ecutwfc = 40,
  ecutrho = 320,
  occupations = 'smearing',
  smearing = 'gaussian',
  degauss = 0.02,
  input_dft = 'pbe',
  vdw_corr = 'grimme-d2',
  london_s6 = 0.5,
/
&ELECTRONS
  electron_maxstep = 100,
  diagonalization = 'david',
  conv_thr = 1.0d-6,
  mixing_beta = 0.12,
/
&IONS
/
&CELL
  press = 0.0,
/
ATOMIC_SPECIES
P   30.974    p_pbe_v1.5.uspp.F.UPF
Cu  63.546    cu_pbe_v1.2.uspp.F.UPF
In  114.818   in_pbe_v1.4.uspp.F.UPF
Se  78.971    se_pbe_v1.uspp.F.UPF

ATOMIC_POSITIONS (crystal)
Cu 0.700061034 0.283409874 0.280609629
Cu 0.341107400 0.709259438 0.732607234
In -0.009467265 -0.003204404 0.261786341
In -0.002119714 -0.013052150 0.735347240
P 0.335634942 0.668594911 0.165194777
P 0.332357592 0.668983826 0.333844017
P 0.668888723 0.334874600 -0.166181941
P 0.664928132 0.333015259 0.665017572
Se 0.005147290 0.339316422 0.115791270
Se -0.342356116 -0.326631433 0.120626061
Se 0.327198045 -0.014363012 0.121055125
Se -0.338929977 -0.009738856 0.378996000
Se 0.330094559 0.340054496 0.378193197
Se 0.009838810 -0.331876674 0.384269877
Se -0.005496165 -0.341611111 -0.115314466
Se 0.338386372 0.332371251 -0.118705739
Se -0.329769953 0.009969690 -0.116326213
Se 0.344826152 0.008932096 0.622013575
Se -0.331275606 -0.342965863 0.623925102
Se -0.008333431 0.328057590 0.624698423

 
K_POINTS {automatic}
6 6 6 1 1 1