&CONTROL
  calculation = 'vc-relax',
  pseudo_dir = './',
  outdir='./'
  prefix = 'test',
etot_conv_thr=1.D-7,
forc_conv_thr=2.D-6,
nstep =200,
/
&SYSTEM
  ibrav = 4,
  celldm(1) = 12.0809,
  celldm(3) = 2.0867,
  nat = 20,
  ntyp = 4,
  ecutwfc = 40,
  ecutrho = 320,
  occupations = 'smearing',
  smearing = 'gaussian',
  degauss = 0.02,
  input_dft = 'pbe',
  vdw_corr = 'grimme-d2',
  london_s6 = 0.5,
/
&ELECTRONS
  electron_maxstep = 100,
  diagonalization = 'david',
  conv_thr = 1.0d-6,
  mixing_beta = 0.12,
/
&IONS
/
&CELL
  press = 0.0,
/
ATOMIC_SPECIES
P   30.974    p_pbe_v1.5.uspp.F.UPF
Cu  63.546    cu_pbe_v1.2.uspp.F.UPF
In  114.818   in_pbe_v1.4.uspp.F.UPF
Se  78.971    se_pbe_v1.uspp.F.UPF

ATOMIC_POSITIONS (crystal)
Cu 0.703576394 0.284379662 0.231584800
Cu 0.338918795 0.706086160 0.730413501
In -0.014851129 -0.002879962 0.253192706
In 0.011685445 -0.006737158 0.760516062
P 0.334140084 0.665992971 0.167061687
P 0.334326371 0.666515190 0.333699311
P 0.668120791 0.331992297 -0.166765059
P 0.668527305 0.333700649 0.664666340
Se 0.011396433 0.342558401 0.119112703
Se -0.343685536 -0.334465242 0.122337032
Se 0.327557511 -0.011361197 0.116555612
Se -0.342715875 -0.006072570 0.378041703
Se 0.326215167 0.338412947 0.380322732
Se 0.009264428 -0.328321804 0.377391998
Se -0.014183951 -0.344834258 -0.123498970
Se 0.342374409 0.328395452 -0.116795602
Se -0.334081402 0.006682040 -0.123698195
Se 0.339507408 0.004989613 0.624087140
Se -0.326234368 -0.339472150 0.617883500
Se -0.013235124 0.329972578 0.622093342

 
K_POINTS {automatic}
6 6 6 1 1 1