&CONTROL
  calculation = 'vc-relax',
  pseudo_dir = './',
  outdir='./'
  prefix = 'test',
etot_conv_thr=1.D-7,
forc_conv_thr=2.D-6,
nstep =200,
/
&SYSTEM
  ibrav = 4,
  celldm(1) = 12.0809,
  celldm(3) = 2.0867,
  nat = 20,
  ntyp = 4,
  ecutwfc = 40,
  ecutrho = 320,
  occupations = 'smearing',
  smearing = 'gaussian',
  degauss = 0.02,
  input_dft = 'pbe',
  vdw_corr = 'grimme-d2',
  london_s6 = 0.5,
/
&ELECTRONS
  electron_maxstep = 100,
  diagonalization = 'david',
  conv_thr = 1.0d-6,
  mixing_beta = 0.12,
/
&IONS
/
&CELL
  press = 0.0,
/
ATOMIC_SPECIES
P   30.974    p_pbe_v1.5.uspp.F.UPF
Cu  63.546    cu_pbe_v1.2.uspp.F.UPF
In  114.818   in_pbe_v1.4.uspp.F.UPF
Se  78.971    se_pbe_v1.uspp.F.UPF

ATOMIC_POSITIONS (crystal)
Cu 0.652968520 0.287427381 0.253442880
Cu 0.304513213 0.627070563 0.751673907
In -0.005556069 -0.002717042 0.235865648
In 0.005635286 0.008680979 0.759577609
P 0.334851727 0.664781698 0.165374225
P 0.331270969 0.664399512 0.335424008
P 0.668782352 0.332960862 -0.167288899
P 0.668488370 0.331269367 0.667743481
Se 0.009124634 0.340865833 0.120642700
Se -0.342242034 -0.325647186 0.115730683
Se 0.327546302 -0.007693627 0.124696435
Se -0.335537857 -0.013952459 0.378606779
Se 0.325854337 0.343774784 0.377523152
Se 0.009450331 -0.330062241 0.381750146
Se -0.013711319 -0.339646506 -0.115440885
Se 0.343929059 0.331981796 -0.115873419
Se -0.330023969 0.005820152 -0.117038292
Se 0.341299867 0.004576954 0.618015757
Se -0.328362264 -0.339837507 0.624358640
Se -0.013016144 0.326486701 0.622699917

 
K_POINTS {automatic}
6 6 6 1 1 1