&CONTROL
  calculation = 'vc-relax',
  pseudo_dir = './',
  outdir='./'
  prefix = 'test',
etot_conv_thr=1.D-7,
forc_conv_thr=2.D-6,
nstep =200,
/
&SYSTEM
  ibrav = 4,
  celldm(1) = 12.0809,
  celldm(3) = 2.0867,
  nat = 20,
  ntyp = 4,
  ecutwfc = 40,
  ecutrho = 320,
  occupations = 'smearing',
  smearing = 'gaussian',
  degauss = 0.02,
  input_dft = 'pbe',
  vdw_corr = 'grimme-d2',
  london_s6 = 0.5,
/
&ELECTRONS
  electron_maxstep = 100,
  diagonalization = 'david',
  conv_thr = 1.0d-6,
  mixing_beta = 0.12,
/
&IONS
/
&CELL
  press = 0.0,
/
ATOMIC_SPECIES
P   30.974    p_pbe_v1.5.uspp.F.UPF
Cu  63.546    cu_pbe_v1.2.uspp.F.UPF
In  114.818   in_pbe_v1.4.uspp.F.UPF
Se  78.971    se_pbe_v1.uspp.F.UPF

ATOMIC_POSITIONS (crystal)
Cu 0.703319094 0.378513369 0.233367017
Cu 0.327891952 0.659041429 0.787031046
In -0.001284672 -0.000151350 0.259733582
In 0.006173603 0.001622600 0.755784884
P 0.333612374 0.665032096 0.166327115
P 0.331033417 0.667690497 0.336033354
P 0.667125858 0.330909993 -0.164381668
P 0.667660197 0.333724240 0.667757039
Se 0.004913156 0.340729186 0.120451174
Se -0.341394295 -0.335556618 0.115987125
Se 0.329568345 -0.008163150 0.116760099
Se -0.343977693 -0.006675059 0.380356162
Se 0.328493602 0.341087977 0.379567875
Se 0.012020303 -0.327650252 0.380370570
Se -0.005618104 -0.339790005 -0.123177377
Se 0.339287325 0.328946591 -0.121449950
Se -0.331884856 0.008407125 -0.122736533
Se 0.335562847 0.013428700 0.615484505
Se -0.328531486 -0.343330634 0.624804519
Se -0.008609502 0.329295130 0.622293172

 
K_POINTS {automatic}
6 6 6 1 1 1