&CONTROL
  calculation = 'vc-relax',
  pseudo_dir = './',
  outdir='./'
  prefix = 'test',
etot_conv_thr=1.D-7,
forc_conv_thr=2.D-6,
nstep =200,
/
&SYSTEM
  ibrav = 4,
  celldm(1) = 12.0809,
  celldm(3) = 2.0867,
  nat = 20,
  ntyp = 4,
  ecutwfc = 40,
  ecutrho = 320,
  occupations = 'smearing',
  smearing = 'gaussian',
  degauss = 0.02,
  input_dft = 'pbe',
  vdw_corr = 'grimme-d2',
  london_s6 = 0.5,
/
&ELECTRONS
  electron_maxstep = 100,
  diagonalization = 'david',
  conv_thr = 1.0d-6,
  mixing_beta = 0.12,
/
&IONS
/
&CELL
  press = 0.0,
/
ATOMIC_SPECIES
P   30.974    p_pbe_v1.5.uspp.F.UPF
Cu  63.546    cu_pbe_v1.2.uspp.F.UPF
In  114.818   in_pbe_v1.4.uspp.F.UPF
Se  78.971    se_pbe_v1.uspp.F.UPF

ATOMIC_POSITIONS (crystal)
Cu 0.716656819 0.300017904 0.294671242
Cu 0.311851985 0.689794906 0.727331464
In 0.007664587 -0.003437711 0.239108657
In 0.003241436 0.013448588 0.737181569
P 0.335661529 0.667084174 0.167143512
P 0.334373758 0.668991165 0.333801674
P 0.665710826 0.334225237 -0.167712774
P 0.666949606 0.331372301 0.663782395
Se 0.010106664 0.341961392 0.123932927
Se -0.344504731 -0.327476638 0.124658529
Se 0.332047908 -0.014100560 0.119950938
Se -0.339791486 -0.014260350 0.382395258
Se 0.328070485 0.339852458 0.379817517
Se 0.006799195 -0.326894026 0.380921172
Se -0.010644598 -0.339829667 -0.123543031
Se 0.337944501 0.331244660 -0.121949931
Se -0.328180572 0.006911001 -0.118275028
Se 0.338202438 0.008794328 0.624837084
Se -0.331291459 -0.339170389 0.618647859
Se -0.009020071 0.335438876 0.619094877

 
K_POINTS {automatic}
6 6 6 1 1 1