&CONTROL
  calculation = 'vc-relax',
  pseudo_dir = './',
  outdir='./'
  prefix = 'test',
etot_conv_thr=1.D-7,
forc_conv_thr=2.D-6,
nstep =200,
/
&SYSTEM
  ibrav = 4,
  celldm(1) = 12.0809,
  celldm(3) = 2.0867,
  nat = 20,
  ntyp = 4,
  ecutwfc = 40,
  ecutrho = 320,
  occupations = 'smearing',
  smearing = 'gaussian',
  degauss = 0.02,
  input_dft = 'pbe',
  vdw_corr = 'grimme-d2',
  london_s6 = 0.5,
/
&ELECTRONS
  electron_maxstep = 100,
  diagonalization = 'david',
  conv_thr = 1.0d-6,
  mixing_beta = 0.12,
/
&IONS
/
&CELL
  press = 0.0,
/
ATOMIC_SPECIES
P   30.974    p_pbe_v1.5.uspp.F.UPF
Cu  63.546    cu_pbe_v1.2.uspp.F.UPF
In  114.818   in_pbe_v1.4.uspp.F.UPF
Se  78.971    se_pbe_v1.uspp.F.UPF

ATOMIC_POSITIONS (crystal)
Cu 0.646298240 0.299885633 0.281140030
Cu 0.340985724 0.635718942 0.777206180
In -0.009300804 -0.005344884 0.257703950
In 0.002266777 -0.011470698 0.758525562
P 0.333674754 0.668008358 0.164331648
P 0.335792713 0.667564720 0.334223164
P 0.669028670 0.332582279 -0.163858441
P 0.668966649 0.335754524 0.666486543
Se 0.006385323 0.344898916 0.120769185
Se -0.343380266 -0.332270934 0.124016664
Se 0.330456176 -0.012940353 0.123719797
Se -0.335846037 -0.006943221 0.384430249
Se 0.332004923 0.340800539 0.383596556
Se 0.007572555 -0.327434060 0.375013832
Se -0.005466164 -0.344277531 -0.121831779
Se 0.338426008 0.332219075 -0.117835094
Se -0.325778632 0.005953708 -0.120623926
Se 0.345022313 0.010471192 0.623862812
Se -0.326665863 -0.337853463 0.623997532
Se -0.005237369 0.334382056 0.616225813

 
K_POINTS {automatic}
6 6 6 1 1 1