&CONTROL
  calculation = 'vc-relax',
  pseudo_dir = './',
  outdir='./'
  prefix = 'test',
etot_conv_thr=1.D-7,
forc_conv_thr=2.D-6,
nstep =200,
/
&SYSTEM
  ibrav = 4,
  celldm(1) = 12.0809,
  celldm(3) = 2.0867,
  nat = 20,
  ntyp = 4,
  ecutwfc = 40,
  ecutrho = 320,
  occupations = 'smearing',
  smearing = 'gaussian',
  degauss = 0.02,
  input_dft = 'pbe',
  vdw_corr = 'grimme-d2',
  london_s6 = 0.5,
/
&ELECTRONS
  electron_maxstep = 100,
  diagonalization = 'david',
  conv_thr = 1.0d-6,
  mixing_beta = 0.12,
/
&IONS
/
&CELL
  press = 0.0,
/
ATOMIC_SPECIES
P   30.974    p_pbe_v1.5.uspp.F.UPF
Cu  63.546    cu_pbe_v1.2.uspp.F.UPF
In  114.818   in_pbe_v1.4.uspp.F.UPF
Se  78.971    se_pbe_v1.uspp.F.UPF

ATOMIC_POSITIONS (crystal)
Cu 0.617118631 0.334101452 0.273277343
Cu 0.322394725 0.654751009 0.783674732
In -0.000506872 0.000349026 0.246837812
In -0.007535768 0.002222743 0.757484886
P 0.335017157 0.664906485 0.163732921
P 0.334201591 0.664383462 0.336172236
P 0.667925613 0.333785975 -0.163058577
P 0.667237157 0.334025743 0.663485563
Se 0.005932082 0.339336234 0.117128903
Se -0.341845939 -0.326851131 0.121671003
Se 0.331241597 -0.012301769 0.122724854
Se -0.344272001 -0.014187197 0.374979171
Se 0.328109868 0.340489181 0.384779355
Se 0.010702029 -0.331989306 0.381388369
Se -0.011720172 -0.336568610 -0.122736329
Se 0.335387280 0.334764041 -0.118545414
Se -0.329047727 0.006889180 -0.120504034
Se 0.343794652 0.012400969 0.619911252
Se -0.328891652 -0.340398485 0.616342271
Se -0.008042623 0.334150330 0.617991344

 
K_POINTS {automatic}
6 6 6 1 1 1