&CONTROL
  calculation = 'vc-relax',
  pseudo_dir = './',
  outdir='./'
  prefix = 'test',
etot_conv_thr=1.D-7,
forc_conv_thr=2.D-6,
nstep =200,
/
&SYSTEM
  ibrav = 4,
  celldm(1) = 12.0809,
  celldm(3) = 2.0867,
  nat = 20,
  ntyp = 4,
  ecutwfc = 40,
  ecutrho = 320,
  occupations = 'smearing',
  smearing = 'gaussian',
  degauss = 0.02,
  input_dft = 'pbe',
  vdw_corr = 'grimme-d2',
  london_s6 = 0.5,
/
&ELECTRONS
  electron_maxstep = 100,
  diagonalization = 'david',
  conv_thr = 1.0d-6,
  mixing_beta = 0.12,
/
&IONS
/
&CELL
  press = 0.0,
/
ATOMIC_SPECIES
P   30.974    p_pbe_v1.5.uspp.F.UPF
Cu  63.546    cu_pbe_v1.2.uspp.F.UPF
In  114.818   in_pbe_v1.4.uspp.F.UPF
Se  78.971    se_pbe_v1.uspp.F.UPF

ATOMIC_POSITIONS (crystal)
Cu 0.709749255 0.377749590 0.287106101
Cu 0.295820664 0.636123319 0.714746543
In -0.006159025 0.009831767 0.254080674
In -0.011348916 0.002240317 0.747940133
P 0.334885927 0.664797735 0.165472037
P 0.335048646 0.666425580 0.336772663
P 0.664744383 0.332714405 -0.164849609
P 0.666105831 0.334335137 0.667211481
Se 0.005302988 0.338125998 0.117570468
Se -0.343844387 -0.334608118 0.116512924
Se 0.326556147 -0.010762160 0.115876414
Se -0.344299552 -0.006525607 0.376500026
Se 0.325904362 0.342691885 0.384351118
Se 0.007081830 -0.333281297 0.379896976
Se -0.006435162 -0.341832628 -0.119435207
Se 0.338561825 0.331416136 -0.117713654
Se -0.333320015 0.006242770 -0.124295150
Se 0.337427587 0.008703963 0.621945162
Se -0.330939427 -0.341420962 0.617918675
Se -0.013606016 0.332414624 0.616900542

 
K_POINTS {automatic}
6 6 6 1 1 1