&CONTROL
  calculation = 'vc-relax',
  pseudo_dir = './',
  outdir='./'
  prefix = 'test',
etot_conv_thr=1.D-7,
forc_conv_thr=2.D-6,
nstep =200,
/
&SYSTEM
  ibrav = 4,
  celldm(1) = 12.0809,
  celldm(3) = 2.0867,
  nat = 20,
  ntyp = 4,
  ecutwfc = 40,
  ecutrho = 320,
  occupations = 'smearing',
  smearing = 'gaussian',
  degauss = 0.02,
  input_dft = 'pbe',
  vdw_corr = 'grimme-d2',
  london_s6 = 0.5,
/
&ELECTRONS
  electron_maxstep = 100,
  diagonalization = 'david',
  conv_thr = 1.0d-6,
  mixing_beta = 0.12,
/
&IONS
/
&CELL
  press = 0.0,
/
ATOMIC_SPECIES
P   30.974    p_pbe_v1.5.uspp.F.UPF
Cu  63.546    cu_pbe_v1.2.uspp.F.UPF
In  114.818   in_pbe_v1.4.uspp.F.UPF
Se  78.971    se_pbe_v1.uspp.F.UPF

ATOMIC_POSITIONS (crystal)
Cu 0.683560103 0.362306135 0.286177859
Cu 0.364467950 0.644465708 0.751139239
In -0.009678817 -0.001330609 0.248802940
In 0.005441966 0.014517421 0.764517679
P 0.333603096 0.664273816 0.166758207
P 0.334846415 0.667253931 0.334420049
P 0.668380268 0.331456549 -0.163539868
P 0.667387049 0.330850891 0.667554013
Se 0.012004274 0.336192845 0.116405022
Se -0.337452310 -0.334830270 0.122593684
Se 0.331093604 -0.014107732 0.117671419
Se -0.342363993 -0.007627844 0.381819222
Se 0.327575308 0.337579337 0.376676541
Se 0.010219099 -0.334444597 0.384205072
Se -0.010903232 -0.340783140 -0.119619074
Se 0.342787433 0.328273844 -0.118774258
Se -0.328110821 0.012515138 -0.115161375
Se 0.338143424 0.011945999 0.617560324
Se -0.329016333 -0.344848873 0.617138866
Se -0.008720269 0.333455449 0.616943812

 
K_POINTS {automatic}
6 6 6 1 1 1