&CONTROL
  calculation = 'vc-relax',
  pseudo_dir = './',
  outdir='./'
  prefix = 'test',
etot_conv_thr=1.D-7,
forc_conv_thr=2.D-6,
nstep =200,
/
&SYSTEM
  ibrav = 4,
  celldm(1) = 12.0809,
  celldm(3) = 2.0867,
  nat = 20,
  ntyp = 4,
  ecutwfc = 40,
  ecutrho = 320,
  occupations = 'smearing',
  smearing = 'gaussian',
  degauss = 0.02,
  input_dft = 'pbe',
  vdw_corr = 'grimme-d2',
  london_s6 = 0.5,
/
&ELECTRONS
  electron_maxstep = 100,
  diagonalization = 'david',
  conv_thr = 1.0d-6,
  mixing_beta = 0.12,
/
&IONS
/
&CELL
  press = 0.0,
/
ATOMIC_SPECIES
P   30.974    p_pbe_v1.5.uspp.F.UPF
Cu  63.546    cu_pbe_v1.2.uspp.F.UPF
In  114.818   in_pbe_v1.4.uspp.F.UPF
Se  78.971    se_pbe_v1.uspp.F.UPF

ATOMIC_POSITIONS (crystal)
Cu 0.648652507 0.380510211 0.206127648
Cu 0.356191843 0.685134809 0.783602362
In -0.009654426 0.014938843 0.236870398
In 0.008910378 0.008168314 0.740942606
P 0.331661947 0.666256002 0.166783321
P 0.331148728 0.666702095 0.333882574
P 0.664534057 0.333066565 -0.163478149
P 0.665158279 0.333348689 0.664477277
Se 0.009626488 0.344850838 0.117337627
Se -0.344259645 -0.329647833 0.123976743
Se 0.328868033 -0.006079735 0.120189966
Se -0.340023733 -0.006021668 0.375054618
Se 0.328802571 0.336265663 0.382430148
Se 0.011651646 -0.335224981 0.383721540
Se -0.007451468 -0.340145304 -0.118220281
Se 0.335907080 0.333368818 -0.117941772
Se -0.333144576 0.007139941 -0.121761386
Se 0.340422932 0.010795805 0.619455537
Se -0.328791964 -0.341597392 0.615529102
Se -0.010461662 0.335086195 0.623813543

 
K_POINTS {automatic}
6 6 6 1 1 1