&CONTROL
  calculation = 'vc-relax',
  pseudo_dir = './',
  outdir='./'
  prefix = 'test',
etot_conv_thr=1.D-7,
forc_conv_thr=2.D-6,
nstep =200,
/
&SYSTEM
  ibrav = 4,
  celldm(1) = 12.0809,
  celldm(3) = 2.0867,
  nat = 20,
  ntyp = 4,
  ecutwfc = 40,
  ecutrho = 320,
  occupations = 'smearing',
  smearing = 'gaussian',
  degauss = 0.02,
  input_dft = 'pbe',
  vdw_corr = 'grimme-d2',
  london_s6 = 0.5,
/
&ELECTRONS
  electron_maxstep = 100,
  diagonalization = 'david',
  conv_thr = 1.0d-6,
  mixing_beta = 0.12,
/
&IONS
/
&CELL
  press = 0.0,
/
ATOMIC_SPECIES
P   30.974    p_pbe_v1.5.uspp.F.UPF
Cu  63.546    cu_pbe_v1.2.uspp.F.UPF
In  114.818   in_pbe_v1.4.uspp.F.UPF
Se  78.971    se_pbe_v1.uspp.F.UPF

ATOMIC_POSITIONS (crystal)
Cu 0.659816790 0.352776815 0.265555548
Cu 0.334143197 0.664379766 0.790240631
In -0.008431758 0.004749029 0.242218617
In -0.007035322 -0.010572083 0.755493685
P 0.334347460 0.665725088 0.165785389
P 0.335244368 0.667351819 0.335493583
P 0.666951122 0.333660874 -0.165909901
P 0.668665059 0.333900036 0.667805959
Se 0.012407904 0.336203248 0.118523175
Se -0.344595301 -0.334628963 0.116612232
Se 0.327520708 -0.012285659 0.124317611
Se -0.335260873 -0.007285619 0.379831117
Se 0.326730356 0.340611232 0.377465762
Se 0.005443033 -0.330917655 0.383474279
Se -0.012065984 -0.338517090 -0.124713370
Se 0.342001857 0.328784393 -0.122621956
Se -0.325777926 0.011659446 -0.122441870
Se 0.337937928 0.012935386 0.624547634
Se -0.328828224 -0.342997255 0.624925431
Se -0.009526293 0.326246130 0.622331437

 
K_POINTS {automatic}
6 6 6 1 1 1