&CONTROL
  calculation = 'vc-relax',
  pseudo_dir = './',
  outdir='./'
  prefix = 'test',
etot_conv_thr=1.D-7,
forc_conv_thr=2.D-6,
nstep =200,
/
&SYSTEM
  ibrav = 4,
  celldm(1) = 12.0809,
  celldm(3) = 2.0867,
  nat = 20,
  ntyp = 4,
  ecutwfc = 40,
  ecutrho = 320,
  occupations = 'smearing',
  smearing = 'gaussian',
  degauss = 0.02,
  input_dft = 'pbe',
  vdw_corr = 'grimme-d2',
  london_s6 = 0.5,
/
&ELECTRONS
  electron_maxstep = 100,
  diagonalization = 'david',
  conv_thr = 1.0d-6,
  mixing_beta = 0.12,
/
&IONS
/
&CELL
  press = 0.0,
/
ATOMIC_SPECIES
P   30.974    p_pbe_v1.5.uspp.F.UPF
Cu  63.546    cu_pbe_v1.2.uspp.F.UPF
In  114.818   in_pbe_v1.4.uspp.F.UPF
Se  78.971    se_pbe_v1.uspp.F.UPF

ATOMIC_POSITIONS (crystal)
Cu 0.629871125 0.348752741 0.230451187
Cu 0.325677604 0.656701899 0.747487407
In 0.004506095 -0.009114488 0.243710550
In 0.004887176 -0.006764269 0.751833875
P 0.332914058 0.665474903 0.163310785
P 0.335161439 0.664724722 0.336766894
P 0.665370645 0.332590493 -0.165314510
P 0.666876996 0.332990515 0.667823203
Se 0.006622488 0.343917699 0.122643489
Se -0.339932581 -0.331194541 0.116439083
Se 0.327041096 -0.005697029 0.119835729
Se -0.337095323 -0.007111617 0.380542693
Se 0.333133658 0.342888811 0.377489246
Se 0.007434785 -0.330882767 0.379330465
Se -0.007709838 -0.340269481 -0.120809398
Se 0.338328462 0.334250095 -0.118803805
Se -0.335595738 0.010682864 -0.123551067
Se 0.341954613 0.011679223 0.617253967
Se -0.327193486 -0.339388740 0.620671883
Se -0.005986626 0.335244521 0.620589179

 
K_POINTS {automatic}
6 6 6 1 1 1