&CONTROL
  calculation = 'vc-relax',
  pseudo_dir = './',
  outdir='./'
  prefix = 'test',
etot_conv_thr=1.D-7,
forc_conv_thr=2.D-6,
nstep =200,
/
&SYSTEM
  ibrav = 4,
  celldm(1) = 12.0809,
  celldm(3) = 2.0867,
  nat = 20,
  ntyp = 4,
  ecutwfc = 40,
  ecutrho = 320,
  occupations = 'smearing',
  smearing = 'gaussian',
  degauss = 0.02,
  input_dft = 'pbe',
  vdw_corr = 'grimme-d2',
  london_s6 = 0.5,
/
&ELECTRONS
  electron_maxstep = 100,
  diagonalization = 'david',
  conv_thr = 1.0d-6,
  mixing_beta = 0.12,
/
&IONS
/
&CELL
  press = 0.0,
/
ATOMIC_SPECIES
P   30.974    p_pbe_v1.5.uspp.F.UPF
Cu  63.546    cu_pbe_v1.2.uspp.F.UPF
In  114.818   in_pbe_v1.4.uspp.F.UPF
Se  78.971    se_pbe_v1.uspp.F.UPF

ATOMIC_POSITIONS (crystal)
Cu 0.631775834 0.327692374 0.209268500
Cu 0.324679821 0.679327124 0.742027390
In 0.007653203 -0.005436508 0.252131092
In -0.011927311 0.000222516 0.758308188
P 0.332424716 0.664541995 0.164803621
P 0.334490687 0.666396092 0.333774463
P 0.667380126 0.331537318 -0.166067787
P 0.668971931 0.334676679 0.664538107
Se 0.009082769 0.339094464 0.122746145
Se -0.338136865 -0.327620794 0.120626047
Se 0.327614782 -0.008970565 0.124148833
Se -0.344599502 -0.006319871 0.384736838
Se 0.329674530 0.337256034 0.382194347
Se 0.008961193 -0.334895584 0.376557033
Se -0.007741807 -0.341351360 -0.115648718
Se 0.342165420 0.327765758 -0.118395408
Se -0.333919951 0.012843269 -0.122694076
Se 0.340694015 0.005637758 0.623766622
Se -0.328227357 -0.341517844 0.621312423
Se -0.009909953 0.332086750 0.615141440

 
K_POINTS {automatic}
6 6 6 1 1 1