&CONTROL
  calculation = 'vc-relax',
  pseudo_dir = './',
  outdir='./'
  prefix = 'test',
etot_conv_thr=1.D-7,
forc_conv_thr=2.D-6,
nstep =200,
/
&SYSTEM
  ibrav = 4,
  celldm(1) = 12.0809,
  celldm(3) = 2.0867,
  nat = 20,
  ntyp = 4,
  ecutwfc = 40,
  ecutrho = 320,
  occupations = 'smearing',
  smearing = 'gaussian',
  degauss = 0.02,
  input_dft = 'pbe',
  vdw_corr = 'grimme-d2',
  london_s6 = 0.5,
/
&ELECTRONS
  electron_maxstep = 100,
  diagonalization = 'david',
  conv_thr = 1.0d-6,
  mixing_beta = 0.12,
/
&IONS
/
&CELL
  press = 0.0,
/
ATOMIC_SPECIES
P   30.974    p_pbe_v1.5.uspp.F.UPF
Cu  63.546    cu_pbe_v1.2.uspp.F.UPF
In  114.818   in_pbe_v1.4.uspp.F.UPF
Se  78.971    se_pbe_v1.uspp.F.UPF

ATOMIC_POSITIONS (crystal)
Cu 0.625992482 0.365293052 0.246557036
Cu 0.302117512 0.622495089 0.750273126
In -0.010588878 -0.012175300 0.263724327
In 0.013747895 0.013462338 0.749578820
P 0.330809943 0.666788239 0.167343466
P 0.331858746 0.667209749 0.336020485
P 0.666798295 0.334773657 -0.167102130
P 0.664696902 0.332713894 0.666005653
Se 0.008055769 0.344842704 0.122144649
Se -0.340614410 -0.328176372 0.122074341
Se 0.335136092 -0.013287323 0.118179904
Se -0.342478101 -0.014006769 0.378920261
Se 0.328345962 0.338558870 0.380057961
Se 0.011863419 -0.329422926 0.377475357
Se -0.004907547 -0.339846871 -0.117060861
Se 0.343511679 0.335009467 -0.116176802
Se -0.330484916 0.008167549 -0.120652288
Se 0.343335975 0.007610616 0.618125493
Se -0.334610481 -0.337852634 0.621702220
Se -0.011385451 0.328226257 0.623659772

 
K_POINTS {automatic}
6 6 6 1 1 1