&CONTROL
  calculation = 'vc-relax',
  pseudo_dir = './',
  outdir='./'
  prefix = 'test',
etot_conv_thr=1.D-7,
forc_conv_thr=2.D-6,
nstep =200,
/
&SYSTEM
  ibrav = 4,
  celldm(1) = 12.0809,
  celldm(3) = 2.0867,
  nat = 20,
  ntyp = 4,
  ecutwfc = 40,
  ecutrho = 320,
  occupations = 'smearing',
  smearing = 'gaussian',
  degauss = 0.02,
  input_dft = 'pbe',
  vdw_corr = 'grimme-d2',
  london_s6 = 0.5,
/
&ELECTRONS
  electron_maxstep = 100,
  diagonalization = 'david',
  conv_thr = 1.0d-6,
  mixing_beta = 0.12,
/
&IONS
/
&CELL
  press = 0.0,
/
ATOMIC_SPECIES
P   30.974    p_pbe_v1.5.uspp.F.UPF
Cu  63.546    cu_pbe_v1.2.uspp.F.UPF
In  114.818   in_pbe_v1.4.uspp.F.UPF
Se  78.971    se_pbe_v1.uspp.F.UPF

ATOMIC_POSITIONS (crystal)
Cu 0.631443771 0.285605098 0.224291056
Cu 0.329571426 0.622235856 0.712422414
In -0.011822344 -0.007420485 0.256880643
In 0.006861831 -0.009356171 0.764493329
P 0.333269820 0.665288889 0.167449193
P 0.332499580 0.666817014 0.336130531
P 0.666454748 0.330836253 -0.166667184
P 0.666602908 0.332908494 0.665964321
Se 0.010973477 0.339757766 0.116491418
Se -0.339570982 -0.331268717 0.121602384
Se 0.327754574 -0.011159039 0.124140974
Se -0.340440876 -0.011621886 0.382865022
Se 0.329103762 0.337068522 0.382413546
Se 0.009099617 -0.333246228 0.375677717
Se -0.005533191 -0.335200130 -0.116041533
Se 0.344377177 0.328786410 -0.115448841
Se -0.331827447 0.005794089 -0.122667875
Se 0.341622943 0.006994166 0.624198374
Se -0.326789416 -0.344489413 0.615883385
Se -0.006932450 0.329926642 0.615580679

 
K_POINTS {automatic}
6 6 6 1 1 1