&CONTROL
  calculation = 'vc-relax',
  pseudo_dir = './',
  outdir='./'
  prefix = 'test',
etot_conv_thr=1.D-7,
forc_conv_thr=2.D-6,
nstep =200,
/
&SYSTEM
  ibrav = 4,
  celldm(1) = 12.0809,
  celldm(3) = 2.0867,
  nat = 20,
  ntyp = 4,
  ecutwfc = 40,
  ecutrho = 320,
  occupations = 'smearing',
  smearing = 'gaussian',
  degauss = 0.02,
  input_dft = 'pbe',
  vdw_corr = 'grimme-d2',
  london_s6 = 0.5,
/
&ELECTRONS
  electron_maxstep = 100,
  diagonalization = 'david',
  conv_thr = 1.0d-6,
  mixing_beta = 0.12,
/
&IONS
/
&CELL
  press = 0.0,
/
ATOMIC_SPECIES
P   30.974    p_pbe_v1.5.uspp.F.UPF
Cu  63.546    cu_pbe_v1.2.uspp.F.UPF
In  114.818   in_pbe_v1.4.uspp.F.UPF
Se  78.971    se_pbe_v1.uspp.F.UPF

ATOMIC_POSITIONS (crystal)
Cu 0.646893646 0.289797108 0.260962226
Cu 0.381284745 0.637274373 0.797233538
In 0.005299699 -0.007862171 0.239777294
In -0.012584400 0.011742562 0.750231984
P 0.331392266 0.664752677 0.167963055
P 0.335647389 0.667945518 0.334560487
P 0.666072698 0.334947147 -0.166377832
P 0.666443862 0.335094426 0.665710836
Se 0.012200155 0.343029487 0.121168504
Se -0.343935908 -0.333223279 0.121300947
Se 0.328359499 -0.013856445 0.124660422
Se -0.336674437 -0.007487563 0.377481920
Se 0.335111724 0.339095658 0.384422794
Se 0.004999534 -0.325841209 0.380691943
Se -0.005891067 -0.337277724 -0.115788297
Se 0.338563231 0.334855476 -0.119258134
Se -0.329667375 0.014361609 -0.118639887
Se 0.338693718 0.006223471 0.620763016
Se -0.332139976 -0.340723726 0.623478659
Se -0.005916582 0.334341717 0.621112675

 
K_POINTS {automatic}
6 6 6 1 1 1