&CONTROL
  calculation = 'vc-relax',
  pseudo_dir = './',
  outdir='./'
  prefix = 'test',
etot_conv_thr=1.D-7,
forc_conv_thr=2.D-6,
nstep =200,
/
&SYSTEM
  ibrav = 4,
  celldm(1) = 12.0809,
  celldm(3) = 2.0867,
  nat = 20,
  ntyp = 4,
  ecutwfc = 40,
  ecutrho = 320,
  occupations = 'smearing',
  smearing = 'gaussian',
  degauss = 0.02,
  input_dft = 'pbe',
  vdw_corr = 'grimme-d2',
  london_s6 = 0.5,
/
&ELECTRONS
  electron_maxstep = 100,
  diagonalization = 'david',
  conv_thr = 1.0d-6,
  mixing_beta = 0.12,
/
&IONS
/
&CELL
  press = 0.0,
/
ATOMIC_SPECIES
P   30.974    p_pbe_v1.5.uspp.F.UPF
Cu  63.546    cu_pbe_v1.2.uspp.F.UPF
In  114.818   in_pbe_v1.4.uspp.F.UPF
Se  78.971    se_pbe_v1.uspp.F.UPF

ATOMIC_POSITIONS (crystal)
Cu 0.638542332 0.309988686 0.295962616
Cu 0.306730570 0.638274261 0.737475915
In 0.004726793 -0.012365997 0.241219883
In 0.003989807 -0.011019106 0.737167370
P 0.330887477 0.665158765 0.167385594
P 0.333468626 0.665542505 0.335641438
P 0.665498400 0.334528741 -0.163982145
P 0.666683391 0.333903940 0.666527342
Se 0.007619584 0.343771633 0.116698793
Se -0.341726101 -0.334850646 0.123244486
Se 0.328076155 -0.011257225 0.119534443
Se -0.339954926 -0.008492271 0.375225595
Se 0.330702902 0.341166400 0.376485839
Se 0.008432738 -0.330541608 0.375978877
Se -0.007480492 -0.340730015 -0.119032586
Se 0.341285851 0.331241951 -0.116408628
Se -0.332941455 0.011057091 -0.122044774
Se 0.335797275 0.009563083 0.620090767
Se -0.335083694 -0.344424388 0.615463930
Se -0.004698990 0.326206385 0.615849522

 
K_POINTS {automatic}
6 6 6 1 1 1