&CONTROL
  calculation = 'vc-relax',
  pseudo_dir = './',
  outdir='./'
  prefix = 'test',
etot_conv_thr=1.D-7,
forc_conv_thr=2.D-6,
nstep =200,
/
&SYSTEM
  ibrav = 4,
  celldm(1) = 12.0809,
  celldm(3) = 2.0867,
  nat = 20,
  ntyp = 4,
  ecutwfc = 40,
  ecutrho = 320,
  occupations = 'smearing',
  smearing = 'gaussian',
  degauss = 0.02,
  input_dft = 'pbe',
  vdw_corr = 'grimme-d2',
  london_s6 = 0.5,
/
&ELECTRONS
  electron_maxstep = 100,
  diagonalization = 'david',
  conv_thr = 1.0d-6,
  mixing_beta = 0.12,
/
&IONS
/
&CELL
  press = 0.0,
/
ATOMIC_SPECIES
P   30.974    p_pbe_v1.5.uspp.F.UPF
Cu  63.546    cu_pbe_v1.2.uspp.F.UPF
In  114.818   in_pbe_v1.4.uspp.F.UPF
Se  78.971    se_pbe_v1.uspp.F.UPF

ATOMIC_POSITIONS (crystal)
Cu 0.640691867 0.286012815 0.283389697
Cu 0.308427028 0.618543759 0.761561456
In -0.006775680 -0.009277347 0.263884119
In 0.003231427 0.011922114 0.755727428
P 0.333741236 0.666385642 0.165443284
P 0.332297175 0.667515305 0.336894067
P 0.664237443 0.334818465 -0.166717486
P 0.666691361 0.332625310 0.666918512
Se 0.011796345 0.337042377 0.120740706
Se -0.335240847 -0.335396207 0.117777375
Se 0.330143918 -0.005296681 0.124337030
Se -0.336325022 -0.006897937 0.379245352
Se 0.331573331 0.342955361 0.381106992
Se 0.006197759 -0.330765539 0.384153567
Se -0.005980800 -0.339819713 -0.123781743
Se 0.342332269 0.331274430 -0.116210951
Se -0.327935643 0.004747387 -0.121224480
Se 0.343459641 0.012240733 0.624798227
Se -0.328365374 -0.340434288 0.615569608
Se -0.005477774 0.326840382 0.615933531

 
K_POINTS {automatic}
6 6 6 1 1 1