&CONTROL
  calculation = 'vc-relax',
  pseudo_dir = './',
  outdir='./'
  prefix = 'test',
etot_conv_thr=1.D-7,
forc_conv_thr=2.D-6,
nstep =200,
/
&SYSTEM
  ibrav = 4,
  celldm(1) = 12.0809,
  celldm(3) = 2.0867,
  nat = 20,
  ntyp = 4,
  ecutwfc = 40,
  ecutrho = 320,
  occupations = 'smearing',
  smearing = 'gaussian',
  degauss = 0.02,
  input_dft = 'pbe',
  vdw_corr = 'grimme-d2',
  london_s6 = 0.5,
/
&ELECTRONS
  electron_maxstep = 100,
  diagonalization = 'david',
  conv_thr = 1.0d-6,
  mixing_beta = 0.12,
/
&IONS
/
&CELL
  press = 0.0,
/
ATOMIC_SPECIES
P   30.974    p_pbe_v1.5.uspp.F.UPF
Cu  63.546    cu_pbe_v1.2.uspp.F.UPF
In  114.818   in_pbe_v1.4.uspp.F.UPF
Se  78.971    se_pbe_v1.uspp.F.UPF

ATOMIC_POSITIONS (crystal)
Cu 0.671077773 0.335742217 0.279898797
Cu 0.317665925 0.651067821 0.763941442
In 0.013444666 0.014319492 0.246321480
In -0.014836192 0.010435188 0.750050812
P 0.334553368 0.665707813 0.167880956
P 0.331185043 0.665081341 0.333935664
P 0.666530268 0.331499346 -0.164603913
P 0.669087364 0.335222968 0.663538421
Se 0.013191334 0.342523536 0.124827900
Se -0.342293132 -0.333116081 0.115390314
Se 0.332052112 -0.005517373 0.121154988
Se -0.343747724 -0.014090311 0.383657490
Se 0.328845692 0.337264167 0.384890570
Se 0.010384536 -0.335078691 0.375778651
Se -0.009268658 -0.341680856 -0.118846768
Se 0.336538978 0.329768756 -0.120836586
Se -0.332204836 0.011351949 -0.115463376
Se 0.336454852 0.011037818 0.617359351
Se -0.325704373 -0.343881990 0.623855657
Se -0.012664258 0.330725961 0.615692459

 
K_POINTS {automatic}
6 6 6 1 1 1