&CONTROL
  calculation = 'vc-relax',
  pseudo_dir = './',
  outdir='./'
  prefix = 'test',
etot_conv_thr=1.D-7,
forc_conv_thr=2.D-6,
nstep =200,
/
&SYSTEM
  ibrav = 4,
  celldm(1) = 12.0809,
  celldm(3) = 2.0867,
  nat = 20,
  ntyp = 4,
  ecutwfc = 40,
  ecutrho = 320,
  occupations = 'smearing',
  smearing = 'gaussian',
  degauss = 0.02,
  input_dft = 'pbe',
  vdw_corr = 'grimme-d2',
  london_s6 = 0.5,
/
&ELECTRONS
  electron_maxstep = 100,
  diagonalization = 'david',
  conv_thr = 1.0d-6,
  mixing_beta = 0.12,
/
&IONS
/
&CELL
  press = 0.0,
/
ATOMIC_SPECIES
P   30.974    p_pbe_v1.5.uspp.F.UPF
Cu  63.546    cu_pbe_v1.2.uspp.F.UPF
In  114.818   in_pbe_v1.4.uspp.F.UPF
Se  78.971    se_pbe_v1.uspp.F.UPF

ATOMIC_POSITIONS (crystal)
Cu 0.633824277 0.346176024 0.260378065
Cu 0.353873310 0.620966308 0.737666169
In -0.011354664 -0.007084001 0.242335071
In 0.012842478 -0.000898912 0.756211586
P 0.332502697 0.667571151 0.163069488
P 0.334671979 0.667053265 0.332717111
P 0.667471656 0.334806413 -0.167386660
P 0.665590702 0.331266250 0.667155513
Se 0.007792155 0.340184032 0.122171818
Se -0.341787438 -0.328418586 0.117547453
Se 0.329833990 -0.006440573 0.118325714
Se -0.345006217 -0.008446538 0.381632977
Se 0.331524965 0.335459705 0.375924034
Se 0.008201759 -0.332071326 0.374970369
Se -0.005306628 -0.338816188 -0.117916800
Se 0.340164239 0.335227377 -0.117906103
Se -0.333709085 0.013032543 -0.120570035
Se 0.337064685 0.009120987 0.621376228
Se -0.327202760 -0.345000175 0.624027231
Se -0.008867682 0.327390140 0.618713064

 
K_POINTS {automatic}
6 6 6 1 1 1