&CONTROL
  calculation = 'vc-relax',
  pseudo_dir = './',
  outdir='./'
  prefix = 'test',
etot_conv_thr=1.D-7,
forc_conv_thr=2.D-6,
nstep =200,
/
&SYSTEM
  ibrav = 4,
  celldm(1) = 12.0809,
  celldm(3) = 2.0867,
  nat = 20,
  ntyp = 4,
  ecutwfc = 40,
  ecutrho = 320,
  occupations = 'smearing',
  smearing = 'gaussian',
  degauss = 0.02,
  input_dft = 'pbe',
  vdw_corr = 'grimme-d2',
  london_s6 = 0.5,
/
&ELECTRONS
  electron_maxstep = 100,
  diagonalization = 'david',
  conv_thr = 1.0d-6,
  mixing_beta = 0.12,
/
&IONS
/
&CELL
  press = 0.0,
/
ATOMIC_SPECIES
P   30.974    p_pbe_v1.5.uspp.F.UPF
Cu  63.546    cu_pbe_v1.2.uspp.F.UPF
In  114.818   in_pbe_v1.4.uspp.F.UPF
Se  78.971    se_pbe_v1.uspp.F.UPF

ATOMIC_POSITIONS (crystal)
Cu 0.626132814 0.356529508 0.217908053
Cu 0.341777799 0.676073479 0.760507346
In 0.004826021 0.008934516 0.242872965
In -0.008035216 -0.004177296 0.751809899
P 0.334496016 0.667092981 0.164327067
P 0.332031691 0.667324507 0.334105615
P 0.668751083 0.335158064 -0.165151735
P 0.667783478 0.334530151 0.664374900
Se 0.007360008 0.344666448 0.120741663
Se -0.342097567 -0.325998505 0.120252580
Se 0.333904201 -0.006539186 0.123927864
Se -0.340327993 -0.013396454 0.378638107
Se 0.325907280 0.336598475 0.384374339
Se 0.010698400 -0.332636101 0.381736719
Se -0.013639888 -0.344238924 -0.123853253
Se 0.336809568 0.332283552 -0.119553543
Se -0.327139261 0.009566368 -0.120296863
Se 0.343876317 0.011795017 0.624660135
Se -0.327463807 -0.343847562 0.623871072
Se -0.010558717 0.330482793 0.619801794

 
K_POINTS {automatic}
6 6 6 1 1 1