&CONTROL
  calculation = 'vc-relax',
  pseudo_dir = './',
  outdir='./'
  prefix = 'test',
etot_conv_thr=1.D-7,
forc_conv_thr=2.D-6,
nstep =200,
/
&SYSTEM
  ibrav = 4,
  celldm(1) = 12.0809,
  celldm(3) = 2.0867,
  nat = 20,
  ntyp = 4,
  ecutwfc = 40,
  ecutrho = 320,
  occupations = 'smearing',
  smearing = 'gaussian',
  degauss = 0.02,
  input_dft = 'pbe',
  vdw_corr = 'grimme-d2',
  london_s6 = 0.5,
/
&ELECTRONS
  electron_maxstep = 100,
  diagonalization = 'david',
  conv_thr = 1.0d-6,
  mixing_beta = 0.12,
/
&IONS
/
&CELL
  press = 0.0,
/
ATOMIC_SPECIES
P   30.974    p_pbe_v1.5.uspp.F.UPF
Cu  63.546    cu_pbe_v1.2.uspp.F.UPF
In  114.818   in_pbe_v1.4.uspp.F.UPF
Se  78.971    se_pbe_v1.uspp.F.UPF

ATOMIC_POSITIONS (crystal)
Cu 0.646864290 0.381620975 0.242409209
Cu 0.339772589 0.632868403 0.743984983
In 0.010500708 0.004641198 0.241100527
In 0.003760672 0.011962774 0.738627629
P 0.333051982 0.667119367 0.163478739
P 0.330911674 0.667156757 0.336008265
P 0.667407168 0.332204677 -0.163068034
P 0.665591166 0.331520426 0.665918504
Se 0.004731353 0.335271979 0.123348007
Se -0.342728911 -0.330485696 0.121030422
Se 0.327590577 -0.007147139 0.121126596
Se -0.342063711 -0.010858244 0.380920629
Se 0.335239071 0.341401623 0.381968573
Se 0.013156324 -0.326596080 0.375382136
Se -0.009711349 -0.338390307 -0.119511292
Se 0.344280268 0.330087312 -0.122428120
Se -0.325980587 0.013027147 -0.118202845
Se 0.341796532 0.011667522 0.620393347
Se -0.330862049 -0.344620703 0.623419168
Se -0.009882078 0.332569105 0.623293812

 
K_POINTS {automatic}
6 6 6 1 1 1