&CONTROL
  calculation = 'vc-relax',
  pseudo_dir = './',
  outdir='./'
  prefix = 'test',
etot_conv_thr=1.D-7,
forc_conv_thr=2.D-6,
nstep =200,
/
&SYSTEM
  ibrav = 4,
  celldm(1) = 12.0809,
  celldm(3) = 2.0867,
  nat = 20,
  ntyp = 4,
  ecutwfc = 40,
  ecutrho = 320,
  occupations = 'smearing',
  smearing = 'gaussian',
  degauss = 0.02,
  input_dft = 'pbe',
  vdw_corr = 'grimme-d2',
  london_s6 = 0.5,
/
&ELECTRONS
  electron_maxstep = 100,
  diagonalization = 'david',
  conv_thr = 1.0d-6,
  mixing_beta = 0.12,
/
&IONS
/
&CELL
  press = 0.0,
/
ATOMIC_SPECIES
P   30.974    p_pbe_v1.5.uspp.F.UPF
Cu  63.546    cu_pbe_v1.2.uspp.F.UPF
In  114.818   in_pbe_v1.4.uspp.F.UPF
Se  78.971    se_pbe_v1.uspp.F.UPF

ATOMIC_POSITIONS (crystal)
Cu 0.676577329 0.304422372 0.266599058
Cu 0.374724051 0.697592215 0.764292555
In 0.004208929 -0.008821963 0.264876881
In 0.013596509 0.004048414 0.758077047
P 0.333112955 0.664369063 0.164176223
P 0.331388140 0.667234162 0.334349578
P 0.664383400 0.330993799 -0.166043237
P 0.665415965 0.332618985 0.665719312
Se 0.005459497 0.339772394 0.116176256
Se -0.341097856 -0.328252104 0.124088155
Se 0.327630570 -0.007190320 0.122558218
Se -0.338349611 -0.007983335 0.381841886
Se 0.331478611 0.338983573 0.382475699
Se 0.010698935 -0.327575671 0.378345810
Se -0.009161930 -0.343705016 -0.122984862
Se 0.340512020 0.332373992 -0.118574722
Se -0.333849666 0.013844690 -0.119641179
Se 0.339688795 0.004757569 0.617227093
Se -0.335167337 -0.340370928 0.623232146
Se -0.014308630 0.334579446 0.616359334

 
K_POINTS {automatic}
6 6 6 1 1 1