&CONTROL
  calculation = 'vc-relax',
  pseudo_dir = './',
  outdir='./'
  prefix = 'test',
etot_conv_thr=1.D-7,
forc_conv_thr=2.D-6,
nstep =200,
/
&SYSTEM
  ibrav = 4,
  celldm(1) = 12.0809,
  celldm(3) = 2.0867,
  nat = 20,
  ntyp = 4,
  ecutwfc = 40,
  ecutrho = 320,
  occupations = 'smearing',
  smearing = 'gaussian',
  degauss = 0.02,
  input_dft = 'pbe',
  vdw_corr = 'grimme-d2',
  london_s6 = 0.5,
/
&ELECTRONS
  electron_maxstep = 100,
  diagonalization = 'david',
  conv_thr = 1.0d-6,
  mixing_beta = 0.12,
/
&IONS
/
&CELL
  press = 0.0,
/
ATOMIC_SPECIES
P   30.974    p_pbe_v1.5.uspp.F.UPF
Cu  63.546    cu_pbe_v1.2.uspp.F.UPF
In  114.818   in_pbe_v1.4.uspp.F.UPF
Se  78.971    se_pbe_v1.uspp.F.UPF

ATOMIC_POSITIONS (crystal)
Cu 0.619608368 0.363143230 0.202234345
Cu 0.308045827 0.700402912 0.725869985
In 0.012344349 0.014319315 0.251000370
In 0.013327480 0.011600645 0.755226120
P 0.333314694 0.664765465 0.163724961
P 0.334587444 0.665321722 0.336706887
P 0.666312219 0.333412509 -0.164766200
P 0.666360551 0.335682635 0.666208027
Se 0.005340802 0.335184570 0.119693374
Se -0.338763158 -0.330507534 0.122623949
Se 0.335338750 -0.011985816 0.122057177
Se -0.344331628 -0.011428818 0.381637694
Se 0.331296915 0.339158578 0.378589014
Se 0.014377572 -0.331101515 0.379990875
Se -0.006345436 -0.337002451 -0.120493335
Se 0.344181038 0.327593822 -0.115131420
Se -0.325927438 0.004588782 -0.121705494
Se 0.338011919 0.006197221 0.621593233
Se -0.329960903 -0.340547957 0.623489866
Se -0.008957912 0.330847522 0.623850105

 
K_POINTS {automatic}
6 6 6 1 1 1