&CONTROL
  calculation = 'vc-relax',
  pseudo_dir = './',
  outdir='./'
  prefix = 'test',
etot_conv_thr=1.D-7,
forc_conv_thr=2.D-6,
nstep =200,
/
&SYSTEM
  ibrav = 4,
  celldm(1) = 12.0809,
  celldm(3) = 2.0867,
  nat = 20,
  ntyp = 4,
  ecutwfc = 40,
  ecutrho = 320,
  occupations = 'smearing',
  smearing = 'gaussian',
  degauss = 0.02,
  input_dft = 'pbe',
  vdw_corr = 'grimme-d2',
  london_s6 = 0.5,
/
&ELECTRONS
  electron_maxstep = 100,
  diagonalization = 'david',
  conv_thr = 1.0d-6,
  mixing_beta = 0.12,
/
&IONS
/
&CELL
  press = 0.0,
/
ATOMIC_SPECIES
P   30.974    p_pbe_v1.5.uspp.F.UPF
Cu  63.546    cu_pbe_v1.2.uspp.F.UPF
In  114.818   in_pbe_v1.4.uspp.F.UPF
Se  78.971    se_pbe_v1.uspp.F.UPF

ATOMIC_POSITIONS (crystal)
Cu 0.653788120 0.318207944 0.274490689
Cu 0.366833348 0.708883217 0.764095841
In 0.008438061 0.014482740 0.246695320
In -0.003573380 -0.002953460 0.752709410
P 0.332262921 0.667000412 0.167002838
P 0.332862647 0.667698899 0.336731406
P 0.666386651 0.334194544 -0.165970154
P 0.667893205 0.335003162 0.666322561
Se 0.008578702 0.339977424 0.122075087
Se -0.336649658 -0.332250548 0.122118507
Se 0.326433100 -0.007464751 0.121025860
Se -0.335424449 -0.012998326 0.378204883
Se 0.327755460 0.343046594 0.381343564
Se 0.011568797 -0.327180442 0.376357704
Se -0.013317382 -0.343578951 -0.121648154
Se 0.341819581 0.330155189 -0.124392863
Se -0.328601243 0.006574416 -0.118809116
Se 0.337468521 0.011345172 0.620263162
Se -0.330264179 -0.338410111 0.623553552
Se -0.013691226 0.329220841 0.615915245

 
K_POINTS {automatic}
6 6 6 1 1 1