&CONTROL
  calculation = 'vc-relax',
  pseudo_dir = './',
  outdir='./'
  prefix = 'test',
etot_conv_thr=1.D-7,
forc_conv_thr=2.D-6,
nstep =200,
/
&SYSTEM
  ibrav = 4,
  celldm(1) = 12.0809,
  celldm(3) = 2.0867,
  nat = 20,
  ntyp = 4,
  ecutwfc = 40,
  ecutrho = 320,
  occupations = 'smearing',
  smearing = 'gaussian',
  degauss = 0.02,
  input_dft = 'pbe',
  vdw_corr = 'grimme-d2',
  london_s6 = 0.5,
/
&ELECTRONS
  electron_maxstep = 100,
  diagonalization = 'david',
  conv_thr = 1.0d-6,
  mixing_beta = 0.12,
/
&IONS
/
&CELL
  press = 0.0,
/
ATOMIC_SPECIES
P   30.974    p_pbe_v1.5.uspp.F.UPF
Cu  63.546    cu_pbe_v1.2.uspp.F.UPF
In  114.818   in_pbe_v1.4.uspp.F.UPF
Se  78.971    se_pbe_v1.uspp.F.UPF

ATOMIC_POSITIONS (crystal)
Cu 0.671651582 0.373117472 0.227875323
Cu 0.325263692 0.656734132 0.784140179
In -0.002043914 0.013505468 0.262765043
In -0.012190699 0.011318812 0.753645095
P 0.332592084 0.667945374 0.164883954
P 0.334359993 0.667842473 0.332413297
P 0.667747568 0.335770965 -0.166105458
P 0.668455570 0.334202205 0.666949255
Se 0.009624750 0.336781377 0.122435573
Se -0.343973584 -0.327145680 0.115881006
Se 0.328888984 -0.007622556 0.124421667
Se -0.335805177 -0.011202313 0.383406251
Se 0.326530843 0.343023065 0.382837389
Se 0.011422435 -0.332512920 0.378236239
Se -0.004794779 -0.338571266 -0.115128193
Se 0.337214383 0.331937955 -0.118697256
Se -0.325848270 0.007310263 -0.122776092
Se 0.343265293 0.013218717 0.621396488
Se -0.334954274 -0.340179323 0.618832166
Se -0.009890613 0.327872514 0.618917596

 
K_POINTS {automatic}
6 6 6 1 1 1