&CONTROL
  calculation = 'vc-relax',
  pseudo_dir = './',
  outdir='./'
  prefix = 'test',
etot_conv_thr=1.D-7,
forc_conv_thr=2.D-6,
nstep =200,
/
&SYSTEM
  ibrav = 4,
  celldm(1) = 12.0809,
  celldm(3) = 2.0867,
  nat = 20,
  ntyp = 4,
  ecutwfc = 40,
  ecutrho = 320,
  occupations = 'smearing',
  smearing = 'gaussian',
  degauss = 0.02,
  input_dft = 'pbe',
  vdw_corr = 'grimme-d2',
  london_s6 = 0.5,
/
&ELECTRONS
  electron_maxstep = 100,
  diagonalization = 'david',
  conv_thr = 1.0d-6,
  mixing_beta = 0.12,
/
&IONS
/
&CELL
  press = 0.0,
/
ATOMIC_SPECIES
P   30.974    p_pbe_v1.5.uspp.F.UPF
Cu  63.546    cu_pbe_v1.2.uspp.F.UPF
In  114.818   in_pbe_v1.4.uspp.F.UPF
Se  78.971    se_pbe_v1.uspp.F.UPF

ATOMIC_POSITIONS (crystal)
Cu 0.679615929 0.319915195 0.253460094
Cu 0.315966551 0.698388328 0.786596159
In -0.004003926 -0.002440312 0.258408113
In 0.001487624 0.003451306 0.761314474
P 0.331695572 0.666477544 0.166227502
P 0.334665746 0.665864553 0.332851965
P 0.666074541 0.331677833 -0.164749977
P 0.667460654 0.333393353 0.663473433
Se 0.011298313 0.342356377 0.117000801
Se -0.342148366 -0.332536247 0.117398635
Se 0.331907742 -0.010629718 0.118874038
Se -0.342572288 -0.011326362 0.381534503
Se 0.330256512 0.337481344 0.376936825
Se 0.007061910 -0.330810595 0.383147635
Se -0.007991174 -0.335366602 -0.121773450
Se 0.341763426 0.333381866 -0.116632836
Se -0.329939539 0.007296034 -0.115116745
Se 0.338718497 0.012102796 0.623374256
Se -0.333123935 -0.342973789 0.617193180
Se -0.007384204 0.330918411 0.615368154

 
K_POINTS {automatic}
6 6 6 1 1 1