&CONTROL
  calculation = 'vc-relax',
  pseudo_dir = './',
  outdir='./'
  prefix = 'test',
etot_conv_thr=1.D-7,
forc_conv_thr=2.D-6,
nstep =200,
/
&SYSTEM
  ibrav = 4,
  celldm(1) = 12.0809,
  celldm(3) = 2.0867,
  nat = 20,
  ntyp = 4,
  ecutwfc = 40,
  ecutrho = 320,
  occupations = 'smearing',
  smearing = 'gaussian',
  degauss = 0.02,
  input_dft = 'pbe',
  vdw_corr = 'grimme-d2',
  london_s6 = 0.5,
/
&ELECTRONS
  electron_maxstep = 100,
  diagonalization = 'david',
  conv_thr = 1.0d-6,
  mixing_beta = 0.12,
/
&IONS
/
&CELL
  press = 0.0,
/
ATOMIC_SPECIES
P   30.974    p_pbe_v1.5.uspp.F.UPF
Cu  63.546    cu_pbe_v1.2.uspp.F.UPF
In  114.818   in_pbe_v1.4.uspp.F.UPF
Se  78.971    se_pbe_v1.uspp.F.UPF

ATOMIC_POSITIONS (crystal)
Cu 0.654277188 0.332152923 0.201176332
Cu 0.324641414 0.695446495 0.798213674
In 0.008702160 -0.013461815 0.263252807
In -0.011428937 -0.000267967 0.752703880
P 0.334471595 0.664278995 0.167187068
P 0.331616899 0.666975337 0.335326049
P 0.668317866 0.330979634 -0.166751606
P 0.666713577 0.335685719 0.667708000
Se 0.004925316 0.342047122 0.123052291
Se -0.341446061 -0.331514831 0.124084970
Se 0.331699049 -0.011188735 0.118710783
Se -0.342419398 -0.011681021 0.375029042
Se 0.334168287 0.335787249 0.379723005
Se 0.005155969 -0.333735815 0.376497894
Se -0.013206375 -0.344661080 -0.117991718
Se 0.342292175 0.335464758 -0.115531955
Se -0.327760093 0.012657861 -0.120045442
Se 0.341288455 0.010386014 0.621559124
Se -0.333128129 -0.339549523 0.619342588
Se -0.004508861 0.329122865 0.616440087

 
K_POINTS {automatic}
6 6 6 1 1 1