&CONTROL
  calculation = 'vc-relax',
  pseudo_dir = './',
  outdir='./'
  prefix = 'test',
etot_conv_thr=1.D-7,
forc_conv_thr=2.D-6,
nstep =200,
/
&SYSTEM
  ibrav = 4,
  celldm(1) = 12.0809,
  celldm(3) = 2.0867,
  nat = 20,
  ntyp = 4,
  ecutwfc = 40,
  ecutrho = 320,
  occupations = 'smearing',
  smearing = 'gaussian',
  degauss = 0.02,
  input_dft = 'pbe',
  vdw_corr = 'grimme-d2',
  london_s6 = 0.5,
/
&ELECTRONS
  electron_maxstep = 100,
  diagonalization = 'david',
  conv_thr = 1.0d-6,
  mixing_beta = 0.12,
/
&IONS
/
&CELL
  press = 0.0,
/
ATOMIC_SPECIES
P   30.974    p_pbe_v1.5.uspp.F.UPF
Cu  63.546    cu_pbe_v1.2.uspp.F.UPF
In  114.818   in_pbe_v1.4.uspp.F.UPF
Se  78.971    se_pbe_v1.uspp.F.UPF

ATOMIC_POSITIONS (crystal)
Cu 0.638439913 0.352089907 0.250248038
Cu 0.329110462 0.651620713 0.711325440
In -0.011248275 0.013712537 0.245840916
In -0.007189469 -0.009885304 0.748750976
P 0.332964101 0.666744791 0.166904983
P 0.335457758 0.664549231 0.333052451
P 0.668438419 0.333952340 -0.163722229
P 0.664278587 0.333768320 0.666271186
Se 0.009820685 0.338940401 0.124647960
Se -0.342915189 -0.334610201 0.117229701
Se 0.331489587 -0.012501567 0.116961464
Se -0.342837744 -0.005226833 0.375404440
Se 0.333130146 0.342621196 0.382397817
Se 0.005297051 -0.330028623 0.383186209
Se -0.011407471 -0.341890901 -0.116519663
Se 0.335447395 0.326439118 -0.119015635
Se -0.326928041 0.009343442 -0.118482701
Se 0.340021471 0.009647746 0.620228967
Se -0.333677362 -0.344714971 0.622291789
Se -0.010609773 0.333779708 0.619742673

 
K_POINTS {automatic}
6 6 6 1 1 1