&CONTROL
  calculation = 'relax',
  pseudo_dir = './',
  outdir='./'
  prefix = 'test',
etot_conv_thr=1.D-7,
forc_conv_thr=2.D-6,
nstep =200,
/
&SYSTEM
  ibrav = 6,
  celldm(1) = 7.5059922,
  celldm(3) =  10.116817656,
  nat = 22,
  ntyp = 3,
  ecutwfc = 40,
  ecutrho = 320,
  occupations = 'smearing',
  smearing = 'gaussian',
  degauss = 0.02,
  input_dft = 'wc',
  tot_charge = 0,
/
&ELECTRONS
  electron_maxstep = 100,
  diagonalization = 'david',
  conv_thr = 1.0d-6,
  mixing_beta = 0.12,
/
&IONS
/
&CELL
  press = 0.0,

ATOMIC_SPECIES
Pb  207.21    pb_pbe_v1.uspp.F.UPF
O   15.9999   o_pbe_v1.2.uspp.F.UPF
H   1.0078    h_pbe_v1.4.uspp.F.UPF
ATOMIC_POSITIONS {crystal}
H       -0.250000000   0.250000000  -0.276475920
H        0.250000000  -0.250000000  -0.276475920
O -0.250000000 0.250000000 -0.22220350241765213
O 0.250000000 -0.250000000 -0.20811705960122215
Pb      -0.250000000  -0.250000000  -0.225328592
Pb       0.250000000   0.250000000  -0.156086534
O -0.250000000 0.250000000 -0.08828385050452384
O 0.250000000 -0.250000000 -0.13271946902291312
Pb      -0.250000000  -0.250000000  -0.096739189
Pb       0.250000000   0.250000000  -0.029662420
O -0.250000000 0.250000000 -0.02768873953854807
O 0.250000000 -0.250000000 -0.004661014384445128
Pb      -0.250000000  -0.250000000   0.029662420
Pb       0.250000000   0.250000000   0.096739189
O -0.250000000 0.250000000 0.13229351401983244
O 0.250000000 -0.250000000 0.10269858737008963
Pb      -0.250000000  -0.250000000   0.156086534
Pb       0.250000000   0.250000000   0.225328592
O -0.250000000 0.250000000 0.301637853285629
O 0.250000000 -0.250000000 0.23921572251681544
H       -0.250000000   0.250000000   0.276475920
H        0.250000000  -0.250000000   0.276475920

K_POINTS {automatic}
6 6 1 1 1 1
